38
structure A
H -1.87030188323216523e-01 -8.46293962405999411e-01 -4.38736101683743052e-01
H 2.69000268099878370e-01 -1.44347466066398589e+00 3.57909594141237297e-01
H -1.22350494227629913e+00 -7.08985021443900743e-01 -3.53450996494845682e-01
H -7.64756416478364454e-01 -1.41081499992766579e+00 -1.14034189020113708e+00
H 4.93873466166108166e+00 -1.16160789285975241e+00 6.86263773660431387e+00
H -4.96040573386480954e+00 4.46969184534815245e+00 -3.10976910204509016e+00
H -2.67734050264105106e+00 8.50530744853814724e+00 2.73215058431576063e-01
H 6.27944250961601114e+00 3.30260536063243348e-01 3.69081744572496717e+00
H -7.34791112808365621e-01 -1.68534750198591099e+00 -4.20079045566552414e-02
H -6.67173948177258058e+00 -2.21824769349493556e+00 -3.06583535997534229e+00
H 2.43005656409515725e+00 6.51578023192571454e+00 2.68832942763173666e+00
H 1.88851646777756210e+00 -1.09657915837609332e+00 -4.83747777830610348e-01
H 7.36030213055134919e+00 2.30962984071404742e+00 -5.83343238648571649e+00
H -5.95374876991067947e-01 -2.74262043173792214e-01 -1.24386835095741688e+00
H -1.62027889480698883e+00 -7.31038806452927403e-01 -1.35695984305822881e+00
H 2.42904900101228977e-01 -8.36620458798288724e-01 1.26290288324385580e+00
H -1.46596764463956752e+00 2.58158489673488090e-01 -7.64408939740690574e-01
H 1.91660447454794214e-01 -1.85028867357911309e+00 -6.76983124397239955e-01
H 4.22456956166246345e-01 -2.87777811008717466e-01 2.98049613315839068e-01
H -7.26550349608989432e+00 -2.51078443089535863e+00 -3.97236695432699261e+00
H -4.36977908983079111e+00 3.87856128043404258e+00 5.44030348230806382e+00
H 1.26868607664113231e+00 -9.70592879218073357e-01 5.30639224707622481e-01
H 1.18343629924761529e+00 -1.64292477289058692e+00 -1.21615621172268562e+00
H -5.59945682256744792e-01 -6.94998542367839645e-01 5.31533973037217056e-01
H 1.26567291904201062e+00 -4.95706568341472531e-01 -1.31458931429328274e+00
H -5.25163404280750368e-01 1.52810636960420243e-01 -1.76440495726135432e-01
H 3.45692618976448873e-01 -2.35722599666506882e-02 -1.86538392878084580e+00
H -5.85735894801200252e-01 -1.62751108907973374e+00 1.07055686309255571e+00
H -1.53665554548077909e+00 -1.22212374268078316e+00 5.56400006284463178e-01
H 4.11339580417917849e-01 -7.47377645976697938e-03 -7.75823270305125878e-01
H -1.44269162931952044e+00 -6.01494518176502388e-02 4.91421598101583035e-01
H 1.17992439561465368e+00 -1.92578975585318113e+00 -1.04459766822759842e-01
H -1.11796452944768698e+00 -6.89333525469283948e-01 1.45024626193641026e+00
H 2.65324627463798590e-01 -1.01055045329026871e+00 -1.40490537149240557e+00
H 8.32367453928928858e-01 -9.74181914601353061e-01 -4.56193206612206192e-01
H -1.71390717952901039e+00 -1.63918488063889223e+00 -5.76330104492115747e-01
H 1.40343504136015262e+00 -9.58730095657800985e-02 -2.31428983343341610e-01
H 3.39451123931704535e+00 1.24465724677613698e+00 -4.89190910458461303e+00
38
structure B
H -1.42929269430791234e-01 -7.65928493205001337e-01 1.74404940612451737e-01
H 2.90505466238206778e-01 -1.28344257089338742e+00 1.04500985424720794e+00
H -1.20012764911325354e+00 -5.98224946753368347e-01 2.25768577479934063e-01
H -6.95323280338747574e-01 -1.32445732093943480e+00 -5.34290434212696286e-01
H -4.72913648562042823e+01 6.24469809080371547e+01 -1.21888323958832032e+01
H -3.13631389792744297e-01 8.87145743341824611e-01 -3.84781820676193764e-01
H -8.80693820156195573e-01 1.13353071749347256e+00 6.78835155757960385e-01
H 2.21652421848719827e+00 -2.16572766442173520e-01 1.10541425235109880e+00
H -7.08139609263526704e-01 -1.57468658571986664e+00 5.99959678584699785e-01
H -3.26592029286737926e+01 -1.01327115948275392e+00 7.24692881496163039e+01
H 2.78319086594875809e-01 9.10843168087974275e-01 6.39689973912945464e-01
H 1.93923457770967755e+00 -8.71340811707122298e-01 2.47333164468339500e-01
H 5.10241476541395542e+01 1.54136991198774389e+01 5.86787429499027695e+01
H -5.45272202972370446e-01 -1.84883131770486486e-01 -6.31640124892551946e-01
H -1.55106407649676248e+00 -6.37109178043702484e-01 -7.88973794395190109e-01
H 1.28705608024474449e-01 -5.81482488631606120e-01 1.92542210454718266e+00
H -1.36576966271709943e+00 4.26218001408566582e-01 -1.52431784983799556e-01
H 2.90697667133375137e-01 -1.72908722030007489e+00 -4.52052417015711902e-03
H 4.10162561631180089e-01 -1.49985891114415626e-01 9.49853349003925929e-01
H 2.86469634920716665e+01 -7.79609331087470325e-01 -7.41020178596579200e+01
H -3.84895214616871484e-01 4.14192878983498380e-01 1.48120621727046098e+00
H 1.26893448468721481e+00 -7.76377628343251192e-01 1.23873616642762818e+00
H 1.29327315149182764e+00 -1.47094736832433570e+00 -5.02067511298548985e-01
H -5.67857526810006785e-01 -5.99849772350316668e-01 1.11043989081992223e+00
H 1.33897996807331454e+00 -3.20126505403456552e-01 -6.09342322063611719e-01
H -4.85458408370685768e-01 1.93087319999821844e-01 4.13120363623304676e-01
H 3.56693519512311985e-01 1.62253156345390032e-01 -1.19659146812973005e+00
H -6.09971169408218716e-01 -1.45604510369867324e+00 1.73893415537735119e+00
H -1.53974481606015612e+00 -1.05166854367923346e+00 1.17115166815092264e+00
H 4.42308480607026211e-01 1.12254497842726494e-01 -1.27312631637216206e-01
H -1.38347774069852192e+00 1.31972716620796154e-01 1.03519228568576271e+00
H 1.25154401746151600e+00 -1.73753513737913590e+00 6.20886784893566523e-01
H -1.04357290892114674e+00 -3.86501072246622113e-01 2.02863986070089197e+00
H 3.66461378636230850e-01 -8.66468045272013043e-01 -7.59547030680591262e-01
H 8.81366040570271458e-01 -8.14120220201375200e-01 2.33053784593610425e-01
H -1.65616129156136793e+00 -1.54600860326219403e+00 9.05548031139436979e-03
H 1.37230529730332318e+00 1.18734848376620378e-01 4.67929869480077421e-01
H 1.82300743484321504e+00 -7.55019013685375029e+01 -5.26122725324189844e+01
